\Problem name: transaction                                                      
\FICO Xpress v9.2.5, Community, written 22:31:40, Nov 22, 2023

Minimize
__OBJ___: 9617.288250000001 - 126.99365 X_1_1 - 23.700000000000003 X_1_2
 - 690 X_1_3 - 164.99450000000002 X_1_4 - 19.8 X_1_5
 - 15.817499999999999 X_1_6 - 13.452 X_1_7 - 25.55 X_1_8 - 33.15 X_1_9
 - 810 X_1_10 - 126.99365 X_2_1 - 23.700000000000003 X_2_2 - 690 X_2_3
 - 164.99450000000002 X_2_4 - 19.8 X_2_5 - 15.817499999999999 X_2_6
 - 13.452 X_2_7 - 25.55 X_2_8 - 33.15 X_2_9 - 810 X_2_10 - 126.99365 X_3_1
 - 23.700000000000003 X_3_2 - 690 X_3_3 - 164.99450000000002 X_3_4
 - 19.8 X_3_5 - 15.817499999999999 X_3_6 - 13.452 X_3_7 - 25.55 X_3_8
 - 33.15 X_3_9 - 810 X_3_10 - 126.99365 X_4_1 - 23.700000000000003 X_4_2
 - 690 X_4_3 - 164.99450000000002 X_4_4 - 19.8 X_4_5
 - 15.817499999999999 X_4_6 - 13.452 X_4_7 - 25.55 X_4_8 - 33.15 X_4_9
 - 810 X_4_10 - 126.99365 X_5_1 - 23.700000000000003 X_5_2 - 690 X_5_3
 - 164.99450000000002 X_5_4 - 19.8 X_5_5 - 15.817499999999999 X_5_6
 - 13.452 X_5_7 - 25.55 X_5_8 - 33.15 X_5_9 - 810 X_5_10 - 126.99365 X4_1_1
 - 23.700000000000003 X4_1_2 - 690 X4_1_3 - 164.99450000000002 X4_1_4
 - 19.8 X4_1_5 - 15.817499999999999 X4_1_6 - 13.452 X4_1_7 - 25.55 X4_1_8
 - 33.15 X4_1_9 - 810 X4_1_10 - 126.99365 X4_2_1 - 23.700000000000003 X4_2_2
 - 690 X4_2_3 - 164.99450000000002 X4_2_4 - 19.8 X4_2_5
 - 15.817499999999999 X4_2_6 - 13.452 X4_2_7 - 25.55 X4_2_8 - 33.15 X4_2_9
 - 810 X4_2_10 - 126.99365 X4_3_1 - 23.700000000000003 X4_3_2 - 690 X4_3_3
 - 164.99450000000002 X4_3_4 - 19.8 X4_3_5 - 15.817499999999999 X4_3_6
 - 13.452 X4_3_7 - 25.55 X4_3_8 - 33.15 X4_3_9 - 810 X4_3_10
 - 126.99365 X4_4_1 - 23.700000000000003 X4_4_2 - 690 X4_4_3
 - 164.99450000000002 X4_4_4 - 19.8 X4_4_5 - 15.817499999999999 X4_4_6
 - 13.452 X4_4_7 - 25.55 X4_4_8 - 33.15 X4_4_9 - 810 X4_4_10
 - 126.99365 X4_5_1 - 23.700000000000003 X4_5_2 - 690 X4_5_3
 - 164.99450000000002 X4_5_4 - 19.8 X4_5_5 - 15.817499999999999 X4_5_6
 - 13.452 X4_5_7 - 25.55 X4_5_8 - 33.15 X4_5_9 - 810 X4_5_10 - 125.99365 Z_1_1
 - 23.450000000000003 Z_2_1 - 689 Z_3_1 - 163.99450000000002 Z_4_1
 - 19.55 Z_5_1 - 15.567499999999999 Z_6_1 - 13.202 Z_7_1 - 25.3 Z_8_1
 - 32.9 Z_9_1 - 809 Z_10_1 - 125.99365 Z_1_2 - 23.450000000000003 Z_2_2
 - 689 Z_3_2 - 163.99450000000002 Z_4_2 - 19.55 Z_5_2
 - 15.567499999999999 Z_6_2 - 13.202 Z_7_2 - 25.3 Z_8_2 - 32.9 Z_9_2
 - 809 Z_10_2 - 125.99365 Z_1_3 - 23.450000000000003 Z_2_3 - 689 Z_3_3
 - 163.99450000000002 Z_4_3 - 19.55 Z_5_3 - 15.567499999999999 Z_6_3
 - 13.202 Z_7_3 - 25.3 Z_8_3 - 32.9 Z_9_3 - 809 Z_10_3 - 125.99365 Z_1_4
 - 23.450000000000003 Z_2_4 - 689 Z_3_4 - 163.99450000000002 Z_4_4
 - 19.55 Z_5_4 - 15.567499999999999 Z_6_4 - 13.202 Z_7_4 - 25.3 Z_8_4
 - 32.9 Z_9_4 - 809 Z_10_4 - 125.99365 Z_1_5 - 23.450000000000003 Z_2_5
 - 689 Z_3_5 - 163.99450000000002 Z_4_5 - 19.55 Z_5_5
 - 15.567499999999999 Z_6_5 - 13.202 Z_7_5 - 25.3 Z_8_5 - 32.9 Z_9_5
 - 809 Z_10_5 - 125.99365 Z4_1_1 - 23.450000000000003 Z4_2_1 - 689 Z4_3_1
 - 163.99450000000002 Z4_4_1 - 19.55 Z4_5_1 - 15.567499999999999 Z4_6_1
 - 13.202 Z4_7_1 - 25.3 Z4_8_1 - 32.9 Z4_9_1 - 809 Z4_10_1 - 125.99365 Z4_1_2
 - 23.450000000000003 Z4_2_2 - 689 Z4_3_2 - 163.99450000000002 Z4_4_2
 - 19.55 Z4_5_2 - 15.567499999999999 Z4_6_2 - 13.202 Z4_7_2 - 25.3 Z4_8_2
 - 32.9 Z4_9_2 - 809 Z4_10_2 - 125.99365 Z4_1_3 - 23.450000000000003 Z4_2_3
 - 689 Z4_3_3 - 163.99450000000002 Z4_4_3 - 19.55 Z4_5_3
 - 15.567499999999999 Z4_6_3 - 13.202 Z4_7_3 - 25.3 Z4_8_3 - 32.9 Z4_9_3
 - 809 Z4_10_3 - 125.99365 Z4_1_4 - 23.450000000000003 Z4_2_4 - 689 Z4_3_4
 - 163.99450000000002 Z4_4_4 - 19.55 Z4_5_4 - 15.567499999999999 Z4_6_4
 - 13.202 Z4_7_4 - 25.3 Z4_8_4 - 32.9 Z4_9_4 - 809 Z4_10_4 - 125.99365 Z4_1_5
 - 23.450000000000003 Z4_2_5 - 689 Z4_3_5 - 163.99450000000002 Z4_4_5
 - 19.55 Z4_5_5 - 15.567499999999999 Z4_6_5 - 13.202 Z4_7_5 - 25.3 Z4_8_5
 - 32.9 Z4_9_5 - 809 Z4_10_5

Subject To
R677: X_1_1 + X_2_1 + X_3_1 + X_4_1 + X_5_1 + X4_1_1 + X4_2_1 + X4_3_1 + X4_4_1
          + X4_5_1 + Z_1_1 + Z_1_2 + Z_1_3 + Z_1_4 + Z_1_5 + Z4_1_1 + Z4_1_2
          + Z4_1_3 + Z4_1_4 + Z4_1_5 <= 1 
R678: X_1_2 + X_2_2 + X_3_2 + X_4_2 + X_5_2 + X4_1_2 + X4_2_2 + X4_3_2 + X4_4_2
          + X4_5_2 + Z_2_1 + Z_2_2 + Z_2_3 + Z_2_4 + Z_2_5 + Z4_2_1 + Z4_2_2
          + Z4_2_3 + Z4_2_4 + Z4_2_5 <= 1 
R679: X_1_3 + X_2_3 + X_3_3 + X_4_3 + X_5_3 + X4_1_3 + X4_2_3 + X4_3_3 + X4_4_3
          + X4_5_3 + Z_3_1 + Z_3_2 + Z_3_3 + Z_3_4 + Z_3_5 + Z4_3_1 + Z4_3_2
          + Z4_3_3 + Z4_3_4 + Z4_3_5 <= 1 
R680: X_1_4 + X_2_4 + X_3_4 + X_4_4 + X_5_4 + X4_1_4 + X4_2_4 + X4_3_4 + X4_4_4
          + X4_5_4 + Z_4_1 + Z_4_2 + Z_4_3 + Z_4_4 + Z_4_5 + Z4_4_1 + Z4_4_2
          + Z4_4_3 + Z4_4_4 + Z4_4_5 <= 1 
R681: X_1_5 + X_2_5 + X_3_5 + X_4_5 + X_5_5 + X4_1_5 + X4_2_5 + X4_3_5 + X4_4_5
          + X4_5_5 + Z_5_1 + Z_5_2 + Z_5_3 + Z_5_4 + Z_5_5 + Z4_5_1 + Z4_5_2
          + Z4_5_3 + Z4_5_4 + Z4_5_5 <= 1 
R682: X_1_6 + X_2_6 + X_3_6 + X_4_6 + X_5_6 + X4_1_6 + X4_2_6 + X4_3_6 + X4_4_6
          + X4_5_6 + Z_6_1 + Z_6_2 + Z_6_3 + Z_6_4 + Z_6_5 + Z4_6_1 + Z4_6_2
          + Z4_6_3 + Z4_6_4 + Z4_6_5 <= 1 
R683: X_1_7 + X_2_7 + X_3_7 + X_4_7 + X_5_7 + X4_1_7 + X4_2_7 + X4_3_7 + X4_4_7
          + X4_5_7 + Z_7_1 + Z_7_2 + Z_7_3 + Z_7_4 + Z_7_5 + Z4_7_1 + Z4_7_2
          + Z4_7_3 + Z4_7_4 + Z4_7_5 <= 1 
R684: X_1_8 + X_2_8 + X_3_8 + X_4_8 + X_5_8 + X4_1_8 + X4_2_8 + X4_3_8 + X4_4_8
          + X4_5_8 + Z_8_1 + Z_8_2 + Z_8_3 + Z_8_4 + Z_8_5 + Z4_8_1 + Z4_8_2
          + Z4_8_3 + Z4_8_4 + Z4_8_5 <= 1 
R685: X_1_9 + X_2_9 + X_3_9 + X_4_9 + X_5_9 + X4_1_9 + X4_2_9 + X4_3_9 + X4_4_9
          + X4_5_9 + Z_9_1 + Z_9_2 + Z_9_3 + Z_9_4 + Z_9_5 + Z4_9_1 + Z4_9_2
          + Z4_9_3 + Z4_9_4 + Z4_9_5 <= 1 
R686: X_1_10 + X_2_10 + X_3_10 + X_4_10 + X_5_10 + X4_1_10 + X4_2_10 + X4_3_10
          + X4_4_10 + X4_5_10 + Z_10_1 + Z_10_2 + Z_10_3 + Z_10_4 + Z_10_5
          + Z4_10_1 + Z4_10_2 + Z4_10_3 + Z4_10_4 + Z4_10_5 <= 1 
R687: X_1_1 + 0.25 X_1_2 + X_1_3 + X_1_4 + 0.25 X_1_5 + 0.25 X_1_6 + 0.25 X_1_7
          + 0.25 X_1_8 + 0.25 X_1_9 + X_1_10 - C_1 <= 0 
R688: X_2_1 + 0.25 X_2_2 + X_2_3 + X_2_4 + 0.25 X_2_5 + 0.25 X_2_6 + 0.25 X_2_7
          + 0.25 X_2_8 + 0.25 X_2_9 + X_2_10 - C_2 <= 0 
R689: X_3_1 + 0.25 X_3_2 + X_3_3 + X_3_4 + 0.25 X_3_5 + 0.25 X_3_6 + 0.25 X_3_7
          + 0.25 X_3_8 + 0.25 X_3_9 + X_3_10 - C_3 <= 0 
R690: X_4_1 + 0.25 X_4_2 + X_4_3 + X_4_4 + 0.25 X_4_5 + 0.25 X_4_6 + 0.25 X_4_7
          + 0.25 X_4_8 + 0.25 X_4_9 + X_4_10 - C_4 <= 0 
R691: X_5_1 + 0.25 X_5_2 + X_5_3 + X_5_4 + 0.25 X_5_5 + 0.25 X_5_6 + 0.25 X_5_7
          + 0.25 X_5_8 + 0.25 X_5_9 + X_5_10 - C_5 <= 0 
R692: X4_1_1 + 0.25 X4_1_2 + X4_1_3 + X4_1_4 + 0.25 X4_1_5 + 0.25 X4_1_6
          + 0.25 X4_1_7 + 0.25 X4_1_8 + 0.25 X4_1_9 + X4_1_10 - C4_1 <= 0 
R693: X4_2_1 + 0.25 X4_2_2 + X4_2_3 + X4_2_4 + 0.25 X4_2_5 + 0.25 X4_2_6
          + 0.25 X4_2_7 + 0.25 X4_2_8 + 0.25 X4_2_9 + X4_2_10 - C4_2 <= 0 
R694: X4_3_1 + 0.25 X4_3_2 + X4_3_3 + X4_3_4 + 0.25 X4_3_5 + 0.25 X4_3_6
          + 0.25 X4_3_7 + 0.25 X4_3_8 + 0.25 X4_3_9 + X4_3_10 - C4_3 <= 0 
R695: X4_4_1 + 0.25 X4_4_2 + X4_4_3 + X4_4_4 + 0.25 X4_4_5 + 0.25 X4_4_6
          + 0.25 X4_4_7 + 0.25 X4_4_8 + 0.25 X4_4_9 + X4_4_10 - C4_4 <= 0 
R696: X4_5_1 + 0.25 X4_5_2 + X4_5_3 + X4_5_4 + 0.25 X4_5_5 + 0.25 X4_5_6
          + 0.25 X4_5_7 + 0.25 X4_5_8 + 0.25 X4_5_9 + X4_5_10 - C4_5 <= 0 
R697: C_1 + C4_1 <= 8 
R698: C_2 + C4_2 <= 12 
R699: C_3 + C4_3 <= 10 
R700: C_4 + C4_4 <= 10 
R701: C_5 + C4_5 <= 10 
R702: Z_1_1 <= 1 
R703: Z_1_2 <= 0 
R704: Z_1_3 <= 0 
R705: Z_1_4 <= 0 
R706: Z_1_5 <= 1 
R707: Z_2_1 <= 0 
R708: Z_2_2 <= 0 
R709: Z_2_3 <= 1 
R710: Z_2_4 <= 0 
R711: Z_2_5 <= 1 
R712: Z_3_1 <= 0 
R713: Z_3_2 <= 0 
R714: Z_3_3 <= 0 
R715: Z_3_4 <= 1 
R716: Z_3_5 <= 1 
R717: Z_4_1 <= 0 
R718: Z_4_2 <= 0 
R719: Z_4_3 <= 0 
R720: Z_4_4 <= 0 
R721: Z_4_5 <= 2 
R722: Z_5_1 <= 0 
R723: Z_5_2 <= 1 
R724: Z_5_3 <= 0 
R725: Z_5_4 <= 0 
R726: Z_5_5 <= 1 
R727: Z_6_1 <= 0 
R728: Z_6_2 <= 0 
R729: Z_6_3 <= 0 
R730: Z_6_4 <= 0 
R731: Z_6_5 <= 2 
R732: Z_7_1 <= 1 
R733: Z_7_2 <= 0 
R734: Z_7_3 <= 0 
R735: Z_7_4 <= 0 
R736: Z_7_5 <= 1 
R737: Z_8_1 <= 1 
R738: Z_8_2 <= 0 
R739: Z_8_3 <= 0 
R740: Z_8_4 <= 0 
R741: Z_8_5 <= 1 
R742: Z_9_1 <= 1 
R743: Z_9_2 <= 0 
R744: Z_9_3 <= 0 
R745: Z_9_4 <= 0 
R746: Z_9_5 <= 1 
R747: Z_10_1 <= 0 
R748: Z_10_2 <= 0 
R749: Z_10_3 <= 1 
R750: Z_10_4 <= 0 
R751: Z_10_5 <= 1 
R752: X_1_1 <= 1 
R753: X_2_1 <= 0 
R754: X_3_1 <= 0 
R755: X_4_1 <= 0 
R756: X_5_1 <= 1 
R757: X_1_2 <= 0 
R758: X_2_2 <= 0 
R759: X_3_2 <= 1 
R760: X_4_2 <= 0 
R761: X_5_2 <= 1 
R762: X_1_3 <= 0 
R763: X_2_3 <= 0 
R764: X_3_3 <= 0 
R765: X_4_3 <= 1 
R766: X_5_3 <= 1 
R767: X_1_4 <= 0 
R768: X_2_4 <= 0 
R769: X_3_4 <= 0 
R770: X_4_4 <= 0 
R771: X_5_4 <= 2 
R772: X_1_5 <= 0 
R773: X_2_5 <= 1 
R774: X_3_5 <= 0 
R775: X_4_5 <= 0 
R776: X_5_5 <= 1 
R777: X_1_6 <= 0 
R778: X_2_6 <= 0 
R779: X_3_6 <= 0 
R780: X_4_6 <= 0 
R781: X_5_6 <= 2 
R782: X_1_7 <= 1 
R783: X_2_7 <= 0 
R784: X_3_7 <= 0 
R785: X_4_7 <= 0 
R786: X_5_7 <= 1 
R787: X_1_8 <= 1 
R788: X_2_8 <= 0 
R789: X_3_8 <= 0 
R790: X_4_8 <= 0 
R791: X_5_8 <= 1 
R792: X_1_9 <= 1 
R793: X_2_9 <= 0 
R794: X_3_9 <= 0 
R795: X_4_9 <= 0 
R796: X_5_9 <= 1 
R797: X_1_10 <= 0 
R798: X_2_10 <= 0 
R799: X_3_10 <= 1 
R800: X_4_10 <= 0 
R801: X_5_10 <= 1 
R802: Z4_1_1 <= 0 
R803: Z4_1_2 <= 0 
R804: Z4_1_3 <= 0 
R805: Z4_1_4 <= 0 
R806: Z4_1_5 <= 0 
R807: Z4_2_1 <= 0 
R808: Z4_2_2 <= 0 
R809: Z4_2_3 <= 0 
R810: Z4_2_4 <= 0 
R811: Z4_2_5 <= 0 
R812: Z4_3_1 <= 0 
R813: Z4_3_2 <= 0 
R814: Z4_3_3 <= 0 
R815: Z4_3_4 <= 0 
R816: Z4_3_5 <= 0 
R817: Z4_4_1 <= 0 
R818: Z4_4_2 <= 0 
R819: Z4_4_3 <= 0 
R820: Z4_4_4 <= 0 
R821: Z4_4_5 <= 0 
R822: Z4_5_1 <= 0 
R823: Z4_5_2 <= 0 
R824: Z4_5_3 <= 0 
R825: Z4_5_4 <= 0 
R826: Z4_5_5 <= 0 
R827: Z4_6_1 <= 0 
R828: Z4_6_2 <= 0 
R829: Z4_6_3 <= 0 
R830: Z4_6_4 <= 0 
R831: Z4_6_5 <= 0 
R832: Z4_7_1 <= 0 
R833: Z4_7_2 <= 0 
R834: Z4_7_3 <= 0 
R835: Z4_7_4 <= 0 
R836: Z4_7_5 <= 0 
R837: Z4_8_1 <= 0 
R838: Z4_8_2 <= 0 
R839: Z4_8_3 <= 0 
R840: Z4_8_4 <= 0 
R841: Z4_8_5 <= 0 
R842: Z4_9_1 <= 0 
R843: Z4_9_2 <= 0 
R844: Z4_9_3 <= 0 
R845: Z4_9_4 <= 0 
R846: Z4_9_5 <= 0 
R847: Z4_10_1 <= 0 
R848: Z4_10_2 <= 0 
R849: Z4_10_3 <= 0 
R850: Z4_10_4 <= 0 
R851: Z4_10_5 <= 0 
R852: X4_1_1 <= 0 
R853: X4_2_1 <= 0 
R854: X4_3_1 <= 0 
R855: X4_4_1 <= 0 
R856: X4_5_1 <= 0 
R857: X4_1_2 <= 0 
R858: X4_2_2 <= 0 
R859: X4_3_2 <= 0 
R860: X4_4_2 <= 0 
R861: X4_5_2 <= 0 
R862: X4_1_3 <= 0 
R863: X4_2_3 <= 0 
R864: X4_3_3 <= 0 
R865: X4_4_3 <= 0 
R866: X4_5_3 <= 0 
R867: X4_1_4 <= 0 
R868: X4_2_4 <= 0 
R869: X4_3_4 <= 0 
R870: X4_4_4 <= 0 
R871: X4_5_4 <= 0 
R872: X4_1_5 <= 0 
R873: X4_2_5 <= 0 
R874: X4_3_5 <= 0 
R875: X4_4_5 <= 0 
R876: X4_5_5 <= 0 
R877: X4_1_6 <= 0 
R878: X4_2_6 <= 0 
R879: X4_3_6 <= 0 
R880: X4_4_6 <= 0 
R881: X4_5_6 <= 0 
R882: X4_1_7 <= 0 
R883: X4_2_7 <= 0 
R884: X4_3_7 <= 0 
R885: X4_4_7 <= 0 
R886: X4_5_7 <= 0 
R887: X4_1_8 <= 0 
R888: X4_2_8 <= 0 
R889: X4_3_8 <= 0 
R890: X4_4_8 <= 0 
R891: X4_5_8 <= 0 
R892: X4_1_9 <= 0 
R893: X4_2_9 <= 0 
R894: X4_3_9 <= 0 
R895: X4_4_9 <= 0 
R896: X4_5_9 <= 0 
R897: X4_1_10 <= 0 
R898: X4_2_10 <= 0 
R899: X4_3_10 <= 0 
R900: X4_4_10 <= 0 
R901: X4_5_10 <= 0 
R902: Z_1_1 + Z_2_1 + Z_3_1 + Z_4_1 + Z_5_1 + Z_6_1 + Z_7_1 + Z_8_1 + Z_9_1
          + Z_10_1 + Z_1_2 + Z_2_2 + Z_3_2 + Z_4_2 + Z_5_2 + Z_6_2 + Z_7_2
          + Z_8_2 + Z_9_2 + Z_10_2 + Z_1_3 + Z_2_3 + Z_3_3 + Z_4_3 + Z_5_3
          + Z_6_3 + Z_7_3 + Z_8_3 + Z_9_3 + Z_10_3 + Z_1_4 + Z_2_4 + Z_3_4
          + Z_4_4 + Z_5_4 + Z_6_4 + Z_7_4 + Z_8_4 + Z_9_4 + Z_10_4 + Z_1_5
          + Z_2_5 + Z_3_5 + Z_4_5 + Z_5_5 + Z_6_5 + Z_7_5 + Z_8_5 + Z_9_5
          + Z_10_5 + Z4_1_1 + Z4_2_1 + Z4_3_1 + Z4_4_1 + Z4_5_1 + Z4_6_1
          + Z4_7_1 + Z4_8_1 + Z4_9_1 + Z4_10_1 + Z4_1_2 + Z4_2_2 + Z4_3_2
          + Z4_4_2 + Z4_5_2 + Z4_6_2 + Z4_7_2 + Z4_8_2 + Z4_9_2 + Z4_10_2
          + Z4_1_3 + Z4_2_3 + Z4_3_3 + Z4_4_3 + Z4_5_3 + Z4_6_3 + Z4_7_3
          + Z4_8_3 + Z4_9_3 + Z4_10_3 + Z4_1_4 + Z4_2_4 + Z4_3_4 + Z4_4_4
          + Z4_5_4 + Z4_6_4 + Z4_7_4 + Z4_8_4 + Z4_9_4 + Z4_10_4 + Z4_1_5
          + Z4_2_5 + Z4_3_5 + Z4_4_5 + Z4_5_5 + Z4_6_5 + Z4_7_5 + Z4_8_5
          + Z4_9_5 + Z4_10_5 <= 5 

Bounds

Generals
C_1 C_2 C_3 C_4 C_5 C4_1 C4_2 C4_3 C4_4 C4_5 

Binaries
X_1_1 X_1_2 X_1_3 X_1_4 X_1_5 X_1_6 X_1_7 X_1_8 X_1_9 X_1_10 X_2_1 X_2_2 X_2_3 
X_2_4 X_2_5 X_2_6 X_2_7 X_2_8 X_2_9 X_2_10 X_3_1 X_3_2 X_3_3 X_3_4 X_3_5 X_3_6 
X_3_7 X_3_8 X_3_9 X_3_10 X_4_1 X_4_2 X_4_3 X_4_4 X_4_5 X_4_6 X_4_7 X_4_8 X_4_9 
X_4_10 X_5_1 X_5_2 X_5_3 X_5_4 X_5_5 X_5_6 X_5_7 X_5_8 X_5_9 X_5_10 X4_1_1 
X4_1_2 X4_1_3 X4_1_4 X4_1_5 X4_1_6 X4_1_7 X4_1_8 X4_1_9 X4_1_10 X4_2_1 X4_2_2 
X4_2_3 X4_2_4 X4_2_5 X4_2_6 X4_2_7 X4_2_8 X4_2_9 X4_2_10 X4_3_1 X4_3_2 X4_3_3 
X4_3_4 X4_3_5 X4_3_6 X4_3_7 X4_3_8 X4_3_9 X4_3_10 X4_4_1 X4_4_2 X4_4_3 X4_4_4 
X4_4_5 X4_4_6 X4_4_7 X4_4_8 X4_4_9 X4_4_10 X4_5_1 X4_5_2 X4_5_3 X4_5_4 X4_5_5 
X4_5_6 X4_5_7 X4_5_8 X4_5_9 X4_5_10 Z_1_1 Z_2_1 Z_3_1 Z_4_1 Z_5_1 Z_6_1 Z_7_1 
Z_8_1 Z_9_1 Z_10_1 Z_1_2 Z_2_2 Z_3_2 Z_4_2 Z_5_2 Z_6_2 Z_7_2 Z_8_2 Z_9_2 
Z_10_2 Z_1_3 Z_2_3 Z_3_3 Z_4_3 Z_5_3 Z_6_3 Z_7_3 Z_8_3 Z_9_3 Z_10_3 Z_1_4 
Z_2_4 Z_3_4 Z_4_4 Z_5_4 Z_6_4 Z_7_4 Z_8_4 Z_9_4 Z_10_4 Z_1_5 Z_2_5 Z_3_5 Z_4_5 
Z_5_5 Z_6_5 Z_7_5 Z_8_5 Z_9_5 Z_10_5 Z4_1_1 Z4_2_1 Z4_3_1 Z4_4_1 Z4_5_1 Z4_6_1 
Z4_7_1 Z4_8_1 Z4_9_1 Z4_10_1 Z4_1_2 Z4_2_2 Z4_3_2 Z4_4_2 Z4_5_2 Z4_6_2 Z4_7_2 
Z4_8_2 Z4_9_2 Z4_10_2 Z4_1_3 Z4_2_3 Z4_3_3 Z4_4_3 Z4_5_3 Z4_6_3 Z4_7_3 Z4_8_3 
Z4_9_3 Z4_10_3 Z4_1_4 Z4_2_4 Z4_3_4 Z4_4_4 Z4_5_4 Z4_6_4 Z4_7_4 Z4_8_4 Z4_9_4 
Z4_10_4 Z4_1_5 Z4_2_5 Z4_3_5 Z4_4_5 Z4_5_5 Z4_6_5 Z4_7_5 Z4_8_5 Z4_9_5 Z4_10_5 

End
